DATASET = "thpack3";
INSTANCE = "028";

WIDTH = 233;
HEIGHT = 220;
LENGTH = 587;

NO_OF_SHAPES = 8;
size = [|
  62,59,52 |
  54,52,50 |
  102,69,65 |
  97,76,46 |
  52,50,37 |
  93,85,23 |
  90,38,38 |
  66,60,40 |
|];

verticality = [|
  1,1,1 |
  1,1,1 |
  1,1,1 |
  0,1,1 |
  1,1,1 |
  0,0,1 |
  0,1,1 |
  1,1,1 |
|];

box_count = [
  21,
  9,
  16,
  18,
  18,
  20,
  20,
  21,
];
